800545 54899751
30
48 398453 560929 578172
17 705557 627554 822380 
53 259599 721829 351342 
37 558491 541600 813146 
53 587692 296872 139265 
51 50076 371811 70209 
17 823439 892765 251003 
17 209661 316351 94614 
31 877279 189137 268656 
35 816690 91036 617954 
35 812864 485647 986769 
11 543598 316266 313565 
37 129489 969181 943156 
27 857343 529717 820342 
3 422481 587697 122340 
47 904047 733305 272959 
35 922441 541614 396865 
3 632649 531170 848122 
9 533168 834890 365922 
31 151155 679486 724406 
7 648666 183914 976559 
17 713630 796901 703142 
59 900949 825481 800955 
29 75137 73913 102672 
17 131879 15888 769410 
37 547057 617531 242743 
9 968772 125017 156990 
17 804502 881395 916922 
19 581660 409832 991880 
37 206732 695021 431399 
